CMD:
./solvers/bin/cadical --plain --no-reduce -t 1600 ./data/cnfs//6s31/6s31.81.cnf

c --- [ banner ] -------------------------------------------------------------
c 
c CaDiCaL SAT Solver
c Copyright (c) 2016-2024
c A. Biere, M. Fleury, N. Froleyks, K. Fazekas, F. Pollitt, T. Faller
c JKU Linz, University of Freiburg, TU Wien
c 
c Version 2.1.3 5296d3d2a9bf48c154ab2acb5e44625776d821bf
c g++ (Gentoo 12.3.1_p20230526 p2) 12.3.1 20230526 -Wall -Wextra -O3 -DNDEBUG
c Sat Aug 9 07:26:21 PDT 2025 Linux cedar2.int.cedar.computecanada.ca 5.14.0-362.24.2.el9_3.x86_64 x86_64
c 
c --- [ limit ] --------------------------------------------------------------
c 
c setting time limit to 1600 seconds real time (due to '-t 1600')
c 
c --- [ parsing input ] ------------------------------------------------------
c 
c reading DIMACS file from './data/cnfs//6s31/6s31.81.cnf'
c opening file to read './data/cnfs//6s31/6s31.81.cnf'
c found 'p cnf 112861 333773' header
c parsed 333773 clauses in 0.06 seconds process time
c 
c --- [ options ] ------------------------------------------------------------
c 
c   --compact=false                (different from default 'true')
c   --decompose=false              (different from default 'true')
c   --deduplicate=false            (different from default 'true')
c   --elim=false                   (different from default 'true')
c   --probe=false                  (different from default 'true')
c   --reduce=false                 (different from default 'true')
c   --subsume=false                (different from default 'true')
c   --ternary=false                (different from default 'true')
c   --transred=false               (different from default 'true')
c   --vivify=false                 (different from default 'true')
c 
c --- [ solving ] ------------------------------------------------------------
c 
c time measured in process time since initialization
c 
c  seconds  reductions  redundant  irredundant
c         MB    restarts       trail       variables
c          level   conflicts       glue          remaining
c 
c *  0.06 53  0 0   0    0    0  0% 0 314548 107085 95%
c {  0.10 54  0 0   0    0    0  0% 0 314548 107085 95%
c i  0.10 54 40 0   1   54   49  7% 3 314548 107079 95%
c i  0.11 55 24 0   8  180  163  8% 3 314548 107064 95%
c i  0.11 55 24 0   8  181  163  8% 3 314548 107051 95%
c i  0.13 55 46 0  27  423  391 10% 3 314548 107031 95%
c i  0.13 55 47 0  27  439  404 10% 2 314548 107018 95%
c i  0.13 55 47 0  27  444  408 10% 2 314548 107005 95%
c i  0.13 55 47 0  27  448  411 10% 2 314548 106984 95%
c i  0.13 55 47 0  27  452  414 10% 2 314548 106978 95%
c i  0.13 55 48 0  27  458  419 10% 2 314548 106967 95%
c i  0.13 55 48 0  27  459  419 10% 2 314548 106955 95%
c i  0.14 55 52 0  29  581  531 10% 2 314548 106954 95%
c i  0.15 55 49 0  57  780  707 11% 3 314548 106944 95%
c i  0.15 55 49 0  58  783  709 11% 3 314548 106943 95%
c i  0.15 55 49 0  59  788  712 11% 3 314548 106942 95%
c i  0.15 55 47 0  69  884  798 10% 3 314548 106939 95%
c i  0.15 55 47 0  69  886  799 10% 3 314548 106936 95%
c i  0.15 55 47 0  69  887  799 10% 3 314548 106930 95%
c i  0.15 55 47 0  69  893  803 10% 3 314548 106913 95%
c 
c  seconds  reductions  redundant  irredundant
c         MB    restarts       trail       variables
c          level   conflicts       glue          remaining
c 
c i  0.15 55 46 0  69  911  812 10% 2 314548 106909 95%
c i  0.15 55 46 0  69  912  812 10% 2 314548 106904 95%
c i  0.15 55 46 0  69  913  812 10% 2 314548 106901 95%
c }  0.16 55 45 0  80 1000  888 10% 3 314548 106901 95%
c [  0.16 55  0 0  80 1000  888  0% 0 314548 106901 95%
c O  0.18 55 313 0  80 1002  890 36% 3 314548 106901 95%
c i  0.19 55 54 0  80 1156 1031 10% 3 314548 106900 95%
c i  0.22 55 37 0  81 2174 1995 11% 5 314548 106899 95%
c i  0.24 55 39 0  81 2257 2065 11% 5 314548 106898 95%
c ]  0.28 55 47 0  81 3000 2730 13% 5 314548 106898 95%
c {  0.28 55 45 0  81 3000 2730 10% 3 314548 106898 95%
c F  0.28 55 45 0  83 3004 2734 10% 3 314548 106898 95%
c i  0.28 56 45 0  87 3017 2746 10% 3 314548 106873 95%
c i  0.28 56 45 0  87 3018 2746 10% 3 314548 106860 95%
c i  0.28 56 45 0  87 3019 2746 10% 3 314548 106847 95%
c i  0.28 56 45 0  88 3020 2746 10% 3 314548 106832 95%
c i  0.28 56 45 0  88 3021 2746 10% 3 314548 106819 95%
c i  0.31 56 47 0 142 3448 3101 11% 3 314548 106806 95%
c i  0.31 56 47 0 143 3449 3101 11% 3 314548 106798 95%
c i  0.31 56 47 0 146 3462 3111 11% 3 314548 106791 95%
c 
c  seconds  reductions  redundant  irredundant
c         MB    restarts       trail       variables
c          level   conflicts       glue          remaining
c 
c i  0.32 56 47 0 156 3498 3146 11% 3 314548 106790 95%
c i  0.32 56 47 0 156 3499 3146 11% 3 314548 106789 95%
c i  0.32 56 46 0 157 3500 3146 11% 3 314548 106788 95%
c i  0.32 56 46 0 157 3501 3146 11% 3 314548 106787 95%
... skipped 10514 lines ...
v -112371 112372 -112373 -112374 -112375 112376 -112377 112378 112379 112380
v -112381 -112382 -112383 -112384 -112385 -112386 112387 -112388 -112389
v -112390 -112391 -112392 112393 -112394 112395 112396 112397 112398 -112399
v 112400 112401 112402 -112403 -112404 -112405 -112406 -112407 -112408 -112409
v -112410 -112411 -112412 112413 -112414 112415 -112416 -112417 112418 -112419
v 112420 112421 112422 -112423 -112424 -112425 -112426 112427 112428 112429
v 112430 -112431 -112432 -112433 112434 -112435 112436 -112437 112438 -112439
v -112440 -112441 112442 -112443 112444 112445 -112446 112447 -112448 112449
v -112450 -112451 -112452 112453 112454 -112455 -112456 -112457 -112458 112459
v -112460 112461 -112462 112463 -112464 -112465 -112466 -112467 112468 112469
v -112470 112471 -112472 112473 -112474 -112475 112476 112477 -112478 -112479
v 112480 -112481 112482 112483 -112484 112485 -112486 -112487 -112488 112489
v -112490 -112491 -112492 -112493 -112494 112495 -112496 112497 -112498 112499
v -112500 -112501 -112502 -112503 112504 112505 112506 112507 -112508 112509
v -112510 -112511 112512 -112513 112514 -112515 -112516 112517 -112518 -112519
v 112520 -112521 -112522 112523 -112524 -112525 -112526 112527 -112528 -112529
v 112530 -112531 -112532 -112533 -112534 -112535 112536 -112537 112538 112539
v 112540 112541 -112542 -112543 -112544 112545 -112546 112547 -112548 112549
v -112550 112551 -112552 -112553 112554 -112555 112556 -112557 112558 -112559
v -112560 112561 -112562 112563 -112564 -112565 112566 112567 112568 112569
v 112570 112571 112572 -112573 112574 -112575 112576 -112577 112578 -112579
v -112580 112581 -112582 112583 -112584 112585 -112586 -112587 -112588 -112589
v 112590 -112591 112592 -112593 112594 -112595 -112596 -112597 -112598 112599
v 112600 -112601 112602 -112603 112604 112605 112606 -112607 -112608 112609
v 112610 112611 112612 -112613 -112614 -112615 -112616 -112617 -112618 -112619
v -112620 112621 -112622 112623 -112624 112625 -112626 -112627 -112628 -112629
v -112630 -112631 -112632 -112633 -112634 -112635 -112636 -112637 -112638
v 112639 -112640 -112641 -112642 -112643 112644 -112645 -112646 -112647
v -112648 112649 -112650 -112651 112652 -112653 112654 -112655 112656 -112657
v -112658 -112659 -112660 -112661 -112662 -112663 112664 -112665 112666
v -112667 112668 -112669 -112670 -112671 -112672 112673 112674 -112675 112676
v -112677 112678 -112679 112680 112681 -112682 -112683 112684 -112685 112686
v -112687 -112688 -112689 112690 -112691 112692 112693 -112694 -112695 -112696
v -112697 112698 -112699 112700 -112701 112702 -112703 112704 -112705 -112706
v -112707 112708 112709 -112710 -112711 112712 -112713 112714 -112715 112716
v -112717 -112718 -112719 112720 112721 -112722 -112723 112724 -112725 112726
v -112727 112728 -112729 -112730 -112731 112732 112733 -112734 -112735 112736
v -112737 112738 -112739 112740 -112741 -112742 -112743 112744 112745 -112746
v -112747 112748 -112749 112750 -112751 112752 -112753 -112754 -112755 112756
v 112757 -112758 -112759 -112760 112761 112762 -112763 -112764 112765 -112766
v 112767 112768 112769 -112770 -112771 112772 -112773 112774 -112775 112776
v -112777 112778 -112779 112780 112781 -112782 -112783 112784 -112785 112786
v -112787 112788 -112789 -112790 -112791 112792 112793 -112794 -112795 112796
v -112797 112798 -112799 112800 -112801 -112802 -112803 112804 112805 -112806
v -112807 -112808 112809 -112810 -112811 -112812 -112813 -112814 -112815
v 112816 -112817 112818 -112819 -112820 -112821 -112822 -112823 112824 -112825
v 112826 -112827 -112828 112829 -112830 -112831 112832 -112833 -112834 -112835
v -112836 112837 112838 112839 112840 -112841 -112842 -112843 -112844 112845
v -112846 112847 -112848 -112849 -112850 -112851 112852 -112853 112854 -112855
v -112856 112857 112858 -112859 112860 -112861 0
c 
c --- [ run-time profiling ] -------------------------------------------------
c 
c process time taken by individual solving procedures
c (percentage relative to process time for solving)
c 
c        15.85  100.00% search
c        13.04   82.26% unstable
c         2.38   15.02% stable
c         0.39    2.45% walk
c         0.06    0.36% parse
c         0.04    0.27% lucky
c         0.00    0.00% simplify
c   =================================
c        15.85   99.60% solve
c 
c last line shows process time for solving
c (percentage relative to total process time)
c 
c --- [ statistics ] ---------------------------------------------------------
c 
c chronological:             31206        33.89 %  of conflicts
c conflicts:                 92072      5808.87    per second
c decisions:                561561     35429.15    per second
c fixed:                     10225         9.06 %  of all variables
c learned:                   88830        96.48 %  per conflict
c learned_lits:            1771364       100.00 %  learned literals
c minimized:                     0         0.00 %  learned literals
c shrunken:                 298640        16.86 %  learned literals
c minishrunken:             236927        13.38 %  learned literals
c otfs:                        591         0.64 %  of conflict
c propagations:          170356532        10.75 M  per second
c rephased:                     13      7082.46    interval
c restarts:                   7344        12.54    interval
c stabilizing:                   3        45.61 %  of conflicts
c subsumed:                   4624         1.15 %  of all clauses
c strengthened:                585         0.15 %  of all clauses
c walked:                        3     30690.67    interval
c 
c seconds are measured in process time for solving
c 
c --- [ resources ] ----------------------------------------------------------
c 
c total process time since initialization:        15.91    seconds
c total real time since initialization:           16.03    seconds
c maximum resident set size of process:           87.21    MB
c 
c --- [ shutting down ] ------------------------------------------------------
c 
c exit 10
